\ SCIP STATISTICS
\   Problem name     : CapacitatedFacilityLocation-20-10
\   Variables        : 210 (210 binary, 0 integer, 0 implicit integer, 0 continuous)
\   Constraints      : 231
Minimize
 Obj: +1433.96914462749 x0 +1345.23945778882 x1 +844.113547626003 x2 +1054.17555350196 x3 +1334.68935738681 x4
      +1214.37080401671 x5 +566 x6 +740.532460194654 x7 +1108.67068272364 x8 +1139.7918769267 x9 +192.197792667908 x10
      +109.702312262937 x11 +109.915273480088 x12 +179.360420712797 x13 +84.4464496852447 x14 +75.9902476170525 x15
      +177.02481969148 x16 +127.391826785425 x17 +117.560165389403 x18 +148.304636639946 x19 +60.3372727333952 x20
      +86.4258518455225 x21 +26.9219998283224 x22 +71.232912245368 x23 +85.6778910082124 x24 +98.8184802001285 x25
      +30.4912231492981 x26 +78.2120656368868 x27 +40.0515022853309 x28 +66.2564534230253 x29 +28.5897124102915 x30
      +19.5236880401209 x31 +14.4648319291176 x32 +27.2983852721632 x33 +16.6653209090906 x34 +21.9982658180978 x35
      +24.8616221517305 x36 +20.227142432922 x37 +18.6651472653767 x38 +21.7606608025825 x39 +160.05625072487 x40
      +70.7831427300387 x41 +193.058467512657 x42 +131.922899960061 x43 +76.6858746285534 x44 +135.307339594259 x45
      +191.660535507232 x46 +89.7204943831318 x47 +210.442194515066 x48 +121.431558383478 x49 +102.199725067611 x50
      +77.4698541661522 x51 +37.0488805576518 x52 +100.87254462837 x53 +66.6543880088478 x54 +55.7773640625138 x55
      +84.445290891185 x56 +81.7062036763858 x57 +35.7006918671546 x58 +85.7482068029372 x59 +236.677057350869 x60
      +171.474201646647 x61 +96.5161631910372 x62 +231.417487611591 x63 +145.289565092653 x64 +109.725357151809 x65
      +200.347157975514 x66 +184.445653017927 x67 +89.8765294261054 x68 +197.241443297142 x69 +75.4766960423841 x70
      +63.7207603601707 x71 +146.443285884881 x72 +47.7743126091307 x73 +83.7321780810601 x74 +187.69881030933 x75
      +112.545114612829 x76 +28.0378355166527 x77 +184.892711660407 x78 +19.5065853830443 x79 +111.35384587719 x80
      +48.3844693116687 x81 +81.0537070365437 x82 +99.6135828471393 x83 +31.6070217429536 x84 +45.0961287935015 x85
      +110.477578975742 x86 +63.311066188187 x87 +88.9635067456579 x88 +81.2690852280127 x89 +98.1754942398952 x90
      +38.1549583389934 x91 +160.327323844899 x92 +65.3004784117391 x93 +63.3298473949664 x94 +171.655606366848 x95
      +137.028171466129 x96 +5.28535819844328 x97 +194.073712761621 x98 +44.7915058506396 x99 +59.0759685650613 x100
      +90.5942424255447 x101 +32.038589635105 x102 +71.0515641556836 x103 +90.91890968977 x104 +115.158186418773 x105
      +24.8440562150216 x106 +79.2708456718734 x107 +54.8407848618914 x108 +63.9545027494506 x109 +55.5115702966969 x110
      +51.0531269425762 x111 +10.1543126268681 x112 +57.3522432723209 x113 +46.4246797705391 x114 +44.065424887946 x115
      +41.2646709952795 x116 +50.8251725628709 x117 +9.96789012261632 x118 +49.683423520793 x119 +74.0992541453667 x120
      +69.3663305791171 x121 +11.7721716979156 x122 +76.8782271465719 x123 +63.3768069117969 x124 +61.9705078302417 x125
      +54.334113500753 x126 +68.5566971154128 x127 +14.6172475648408 x128 +66.4785167835834 x129 +65.932094900592 x130
      +57.1351977949642 x131 +130.419662430116 x132 +41.0762553939359 x133 +75.0967250416561 x134 +167.278685220304 x135
      +99.5180366624787 x136 +25.239905911385 x137 +164.547742878113 x138 +16.3019604159166 x139 +158.608123013937 x140
      +112.594409082556 x141 +68.7477273199083 x142 +154.43217767693 x143 +94.7662352286953 x144 +65.1890624530446 x145
      +135.977182527071 x146 +122.457504756886 x147 +62.4352504849423 x148 +132.169789915218 x149 +28.3125983195915 x150
      +4.22164364443413 x151 +36.8028265391339 x152 +21.4926328627071 x153 +8.80289022179661 x154 +30.5115665434039 x155
      +35.4891874230619 x156 +8.89287258351308 x157 +42.3496660084136 x158 +17.6420453397433 x159 +148.986954932168 x160
      +86.6451826997934 x161 +84.0895425049599 x162 +139.572356017673 x163 +67.2101453984412 x164 +50.9478995146992 x165
      +136.810682922684 x166 +100.666118289239 x167 +87.1336816313873 x168 +116.563374350286 x169 +96.7836162860302 x170
      +59.0702074919194 x171 +61.0097209447064 x172 +89.7231935784386 x173 +49.904386021772 x174 +80.7167344343819 x175
      +88.9870467675914 x176 +61.6806067993323 x177 +78.2192205417329 x178 +69.3496474391028 x179 +117.375998999873 x180
      +33.5997530905407 x181 +113.639464910614 x182 +99.1175157147263 x183 +20.4074847277698 x184 +62.9178775702589 x185
      +129.308494024696 x186 +56.696767402548 x187 +124.518484985727 x188 +83.1100831276137 x189 +22.6537567727101 x190
      +80.3347607063317 x191 +116.723632873613 x192 +8.93088703683673 x193 +95.9093714540672 x194 +169.822948625492 x195
      +66.7873284200519 x196 +52.7510920160653 x197 +148.042536817467 x198 +20.5368956337579 x199 +87.0673871063255 x200
      +102.746148869694 x201 +24.8975665874367 x202 +96.4431536452335 x203 +98.7455162929032 x204 +100.33366096685 x205
      +56.1824244430306 x206 +97.4901336278046 x207 +26.0185197756672 x208 +88.5782809086527 x209
Subject to
 c0: +1 x10 +1 x11 +1 x12 +1 x13 +1 x14 +1 x15 +1 x16 +1 x17 +1 x18 +1 x19 >= +1
 c1: +1 x20 +1 x21 +1 x22 +1 x23 +1 x24 +1 x25 +1 x26 +1 x27 +1 x28 +1 x29 >= +1
 c2: +1 x30 +1 x31 +1 x32 +1 x33 +1 x34 +1 x35 +1 x36 +1 x37 +1 x38 +1 x39 >= +1
 c3: +1 x40 +1 x41 +1 x42 +1 x43 +1 x44 +1 x45 +1 x46 +1 x47 +1 x48 +1 x49 >= +1
 c4: +1 x50 +1 x51 +1 x52 +1 x53 +1 x54 +1 x55 +1 x56 +1 x57 +1 x58 +1 x59 >= +1
 c5: +1 x60 +1 x61 +1 x62 +1 x63 +1 x64 +1 x65 +1 x66 +1 x67 +1 x68 +1 x69 >= +1
 c6: +1 x70 +1 x71 +1 x72 +1 x73 +1 x74 +1 x75 +1 x76 +1 x77 +1 x78 +1 x79 >= +1
 c7: +1 x80 +1 x81 +1 x82 +1 x83 +1 x84 +1 x85 +1 x86 +1 x87 +1 x88 +1 x89 >= +1
 c8: +1 x90 +1 x91 +1 x92 +1 x93 +1 x94 +1 x95 +1 x96 +1 x97 +1 x98 +1 x99 >= +1
 c9: +1 x100 +1 x101 +1 x102 +1 x103 +1 x104 +1 x105 +1 x106 +1 x107 +1 x108 +1 x109 >= +1
 c10: +1 x110 +1 x111 +1 x112 +1 x113 +1 x114 +1 x115 +1 x116 +1 x117 +1 x118 +1 x119 >= +1
 c11: +1 x120 +1 x121 +1 x122 +1 x123 +1 x124 +1 x125 +1 x126 +1 x127 +1 x128 +1 x129 >= +1
 c12: +1 x130 +1 x131 +1 x132 +1 x133 +1 x134 +1 x135 +1 x136 +1 x137 +1 x138 +1 x139 >= +1
 c13: +1 x140 +1 x141 +1 x142 +1 x143 +1 x144 +1 x145 +1 x146 +1 x147 +1 x148 +1 x149 >= +1
 c14: +1 x150 +1 x151 +1 x152 +1 x153 +1 x154 +1 x155 +1 x156 +1 x157 +1 x158 +1 x159 >= +1
 c15: +1 x160 +1 x161 +1 x162 +1 x163 +1 x164 +1 x165 +1 x166 +1 x167 +1 x168 +1 x169 >= +1
 c16: +1 x170 +1 x171 +1 x172 +1 x173 +1 x174 +1 x175 +1 x176 +1 x177 +1 x178 +1 x179 >= +1
 c17: +1 x180 +1 x181 +1 x182 +1 x183 +1 x184 +1 x185 +1 x186 +1 x187 +1 x188 +1 x189 >= +1
 c18: +1 x190 +1 x191 +1 x192 +1 x193 +1 x194 +1 x195 +1 x196 +1 x197 +1 x198 +1 x199 >= +1
 c19: +1 x200 +1 x201 +1 x202 +1 x203 +1 x204 +1 x205 +1 x206 +1 x207 +1 x208 +1 x209 >= +1
 c20: +27 x10 +11 x20 +5 x30 +19 x40 +14 x50 +31 x60 +26 x70 +16 x80 +25 x90 +14 x100 +8 x110 +11 x120
  +23 x130 +20 x140 +5 x150 +20 x160 +18 x170 +16 x180 +19 x190 +12 x200 -255 x0 <= +0
 c21: +27 x11 +11 x21 +5 x31 +19 x41 +14 x51 +31 x61 +26 x71 +16 x81 +25 x91 +14 x101 +8 x111 +11 x121
  +23 x131 +20 x141 +5 x151 +20 x161 +18 x171 +16 x181 +19 x191 +12 x201 -250 x1 <= +0
 c22: +27 x12 +11 x22 +5 x32 +19 x42 +14 x52 +31 x62 +26 x72 +16 x82 +25 x92 +14 x102 +8 x112 +11 x122
  +23 x132 +20 x142 +5 x152 +20 x162 +18 x172 +16 x182 +19 x192 +12 x202 -110 x2 <= +0
 c23: +27 x13 +11 x23 +5 x33 +19 x43 +14 x53 +31 x63 +26 x73 +16 x83 +25 x93 +14 x103 +8 x113 +11 x123
  +23 x133 +20 x143 +5 x153 +20 x163 +18 x173 +16 x183 +19 x193 +12 x203 -147 x3 <= +0
 c24: +27 x14 +11 x24 +5 x34 +19 x44 +14 x54 +31 x64 +26 x74 +16 x84 +25 x94 +14 x104 +8 x114 +11 x124
  +23 x134 +20 x144 +5 x154 +20 x164 +18 x174 +16 x184 +19 x194 +12 x204 -250 x4 <= +0
 c25: +27 x15 +11 x25 +5 x35 +19 x45 +14 x55 +31 x65 +26 x75 +16 x85 +25 x95 +14 x105 +8 x115 +11 x125
  +23 x135 +20 x145 +5 x155 +20 x165 +18 x175 +16 x185 +19 x195 +12 x205 -218 x5 <= +0
 c26: +27 x16 +11 x26 +5 x36 +19 x46 +14 x56 +31 x66 +26 x76 +16 x86 +25 x96 +14 x106 +8 x116 +11 x126
  +23 x136 +20 x146 +5 x156 +20 x166 +18 x176 +16 x186 +19 x196 +12 x206 -40 x6 <= +0
 c27: +27 x17 +11 x27 +5 x37 +19 x47 +14 x57 +31 x67 +26 x77 +16 x87 +25 x97 +14 x107 +8 x117 +11 x127
  +23 x137 +20 x147 +5 x157 +20 x167 +18 x177 +16 x187 +19 x197 +12 x207 -84 x7 <= +0
 c28: +27 x18 +11 x28 +5 x38 +19 x48 +14 x58 +31 x68 +26 x78 +16 x88 +25 x98 +14 x108 +8 x118 +11 x128
  +23 x138 +20 x148 +5 x158 +20 x168 +18 x178 +16 x188 +19 x198 +12 x208 -170 x8 <= +0
 c29: +27 x19 +11 x29 +5 x39 +19 x49 +14 x59 +31 x69 +26 x79 +16 x89 +25 x99 +14 x109 +8 x119 +11 x129
  +23 x139 +20 x149 +5 x159 +20 x169 +18 x179 +16 x189 +19 x199 +12 x209 -176 x9 <= +0
 c30: +255 x0 +250 x1 +110 x2 +147 x3 +250 x4 +218 x5 +40 x6 +84 x7 +170 x8 +176 x9 >= +340
 c31: +1 x10 -1 x0 <= +0
 c32: +1 x11 -1 x1 <= +0
 c33: +1 x12 -1 x2 <= +0
 c34: +1 x13 -1 x3 <= +0
 c35: +1 x14 -1 x4 <= +0
 c36: +1 x15 -1 x5 <= +0
 c37: +1 x16 -1 x6 <= +0
 c38: +1 x17 -1 x7 <= +0
 c39: +1 x18 -1 x8 <= +0
 c40: +1 x19 -1 x9 <= +0
 c41: +1 x20 -1 x0 <= +0
 c42: +1 x21 -1 x1 <= +0
 c43: +1 x22 -1 x2 <= +0
 c44: +1 x23 -1 x3 <= +0
 c45: +1 x24 -1 x4 <= +0
 c46: +1 x25 -1 x5 <= +0
 c47: +1 x26 -1 x6 <= +0
 c48: +1 x27 -1 x7 <= +0
 c49: +1 x28 -1 x8 <= +0
 c50: +1 x29 -1 x9 <= +0
 c51: +1 x30 -1 x0 <= +0
 c52: +1 x31 -1 x1 <= +0
 c53: +1 x32 -1 x2 <= +0
 c54: +1 x33 -1 x3 <= +0
 c55: +1 x34 -1 x4 <= +0
 c56: +1 x35 -1 x5 <= +0
 c57: +1 x36 -1 x6 <= +0
 c58: +1 x37 -1 x7 <= +0
 c59: +1 x38 -1 x8 <= +0
 c60: +1 x39 -1 x9 <= +0
 c61: +1 x40 -1 x0 <= +0
 c62: +1 x41 -1 x1 <= +0
 c63: +1 x42 -1 x2 <= +0
 c64: +1 x43 -1 x3 <= +0
 c65: +1 x44 -1 x4 <= +0
 c66: +1 x45 -1 x5 <= +0
 c67: +1 x46 -1 x6 <= +0
 c68: +1 x47 -1 x7 <= +0
 c69: +1 x48 -1 x8 <= +0
 c70: +1 x49 -1 x9 <= +0
 c71: +1 x50 -1 x0 <= +0
 c72: +1 x51 -1 x1 <= +0
 c73: +1 x52 -1 x2 <= +0
 c74: +1 x53 -1 x3 <= +0
 c75: +1 x54 -1 x4 <= +0
 c76: +1 x55 -1 x5 <= +0
 c77: +1 x56 -1 x6 <= +0
 c78: +1 x57 -1 x7 <= +0
 c79: +1 x58 -1 x8 <= +0
 c80: +1 x59 -1 x9 <= +0
 c81: +1 x60 -1 x0 <= +0
 c82: +1 x61 -1 x1 <= +0
 c83: +1 x62 -1 x2 <= +0
 c84: +1 x63 -1 x3 <= +0
 c85: +1 x64 -1 x4 <= +0
 c86: +1 x65 -1 x5 <= +0
 c87: +1 x66 -1 x6 <= +0
 c88: +1 x67 -1 x7 <= +0
 c89: +1 x68 -1 x8 <= +0
 c90: +1 x69 -1 x9 <= +0
 c91: +1 x70 -1 x0 <= +0
 c92: +1 x71 -1 x1 <= +0
 c93: +1 x72 -1 x2 <= +0
 c94: +1 x73 -1 x3 <= +0
 c95: +1 x74 -1 x4 <= +0
 c96: +1 x75 -1 x5 <= +0
 c97: +1 x76 -1 x6 <= +0
 c98: +1 x77 -1 x7 <= +0
 c99: +1 x78 -1 x8 <= +0
 c100: +1 x79 -1 x9 <= +0
 c101: +1 x80 -1 x0 <= +0
 c102: +1 x81 -1 x1 <= +0
 c103: +1 x82 -1 x2 <= +0
 c104: +1 x83 -1 x3 <= +0
 c105: +1 x84 -1 x4 <= +0
 c106: +1 x85 -1 x5 <= +0
 c107: +1 x86 -1 x6 <= +0
 c108: +1 x87 -1 x7 <= +0
 c109: +1 x88 -1 x8 <= +0
 c110: +1 x89 -1 x9 <= +0
 c111: +1 x90 -1 x0 <= +0
 c112: +1 x91 -1 x1 <= +0
 c113: +1 x92 -1 x2 <= +0
 c114: +1 x93 -1 x3 <= +0
 c115: +1 x94 -1 x4 <= +0
 c116: +1 x95 -1 x5 <= +0
 c117: +1 x96 -1 x6 <= +0
 c118: +1 x97 -1 x7 <= +0
 c119: +1 x98 -1 x8 <= +0
 c120: +1 x99 -1 x9 <= +0
 c121: +1 x100 -1 x0 <= +0
 c122: +1 x101 -1 x1 <= +0
 c123: +1 x102 -1 x2 <= +0
 c124: +1 x103 -1 x3 <= +0
 c125: +1 x104 -1 x4 <= +0
 c126: +1 x105 -1 x5 <= +0
 c127: +1 x106 -1 x6 <= +0
 c128: +1 x107 -1 x7 <= +0
 c129: +1 x108 -1 x8 <= +0
 c130: +1 x109 -1 x9 <= +0
 c131: +1 x110 -1 x0 <= +0
 c132: +1 x111 -1 x1 <= +0
 c133: +1 x112 -1 x2 <= +0
 c134: +1 x113 -1 x3 <= +0
 c135: +1 x114 -1 x4 <= +0
 c136: +1 x115 -1 x5 <= +0
 c137: +1 x116 -1 x6 <= +0
 c138: +1 x117 -1 x7 <= +0
 c139: +1 x118 -1 x8 <= +0
 c140: +1 x119 -1 x9 <= +0
 c141: +1 x120 -1 x0 <= +0
 c142: +1 x121 -1 x1 <= +0
 c143: +1 x122 -1 x2 <= +0
 c144: +1 x123 -1 x3 <= +0
 c145: +1 x124 -1 x4 <= +0
 c146: +1 x125 -1 x5 <= +0
 c147: +1 x126 -1 x6 <= +0
 c148: +1 x127 -1 x7 <= +0
 c149: +1 x128 -1 x8 <= +0
 c150: +1 x129 -1 x9 <= +0
 c151: +1 x130 -1 x0 <= +0
 c152: +1 x131 -1 x1 <= +0
 c153: +1 x132 -1 x2 <= +0
 c154: +1 x133 -1 x3 <= +0
 c155: +1 x134 -1 x4 <= +0
 c156: +1 x135 -1 x5 <= +0
 c157: +1 x136 -1 x6 <= +0
 c158: +1 x137 -1 x7 <= +0
 c159: +1 x138 -1 x8 <= +0
 c160: +1 x139 -1 x9 <= +0
 c161: +1 x140 -1 x0 <= +0
 c162: +1 x141 -1 x1 <= +0
 c163: +1 x142 -1 x2 <= +0
 c164: +1 x143 -1 x3 <= +0
 c165: +1 x144 -1 x4 <= +0
 c166: +1 x145 -1 x5 <= +0
 c167: +1 x146 -1 x6 <= +0
 c168: +1 x147 -1 x7 <= +0
 c169: +1 x148 -1 x8 <= +0
 c170: +1 x149 -1 x9 <= +0
 c171: +1 x150 -1 x0 <= +0
 c172: +1 x151 -1 x1 <= +0
 c173: +1 x152 -1 x2 <= +0
 c174: +1 x153 -1 x3 <= +0
 c175: +1 x154 -1 x4 <= +0
 c176: +1 x155 -1 x5 <= +0
 c177: +1 x156 -1 x6 <= +0
 c178: +1 x157 -1 x7 <= +0
 c179: +1 x158 -1 x8 <= +0
 c180: +1 x159 -1 x9 <= +0
 c181: +1 x160 -1 x0 <= +0
 c182: +1 x161 -1 x1 <= +0
 c183: +1 x162 -1 x2 <= +0
 c184: +1 x163 -1 x3 <= +0
 c185: +1 x164 -1 x4 <= +0
 c186: +1 x165 -1 x5 <= +0
 c187: +1 x166 -1 x6 <= +0
 c188: +1 x167 -1 x7 <= +0
 c189: +1 x168 -1 x8 <= +0
 c190: +1 x169 -1 x9 <= +0
 c191: +1 x170 -1 x0 <= +0
 c192: +1 x171 -1 x1 <= +0
 c193: +1 x172 -1 x2 <= +0
 c194: +1 x173 -1 x3 <= +0
 c195: +1 x174 -1 x4 <= +0
 c196: +1 x175 -1 x5 <= +0
 c197: +1 x176 -1 x6 <= +0
 c198: +1 x177 -1 x7 <= +0
 c199: +1 x178 -1 x8 <= +0
 c200: +1 x179 -1 x9 <= +0
 c201: +1 x180 -1 x0 <= +0
 c202: +1 x181 -1 x1 <= +0
 c203: +1 x182 -1 x2 <= +0
 c204: +1 x183 -1 x3 <= +0
 c205: +1 x184 -1 x4 <= +0
 c206: +1 x185 -1 x5 <= +0
 c207: +1 x186 -1 x6 <= +0
 c208: +1 x187 -1 x7 <= +0
 c209: +1 x188 -1 x8 <= +0
 c210: +1 x189 -1 x9 <= +0
 c211: +1 x190 -1 x0 <= +0
 c212: +1 x191 -1 x1 <= +0
 c213: +1 x192 -1 x2 <= +0
 c214: +1 x193 -1 x3 <= +0
 c215: +1 x194 -1 x4 <= +0
 c216: +1 x195 -1 x5 <= +0
 c217: +1 x196 -1 x6 <= +0
 c218: +1 x197 -1 x7 <= +0
 c219: +1 x198 -1 x8 <= +0
 c220: +1 x199 -1 x9 <= +0
 c221: +1 x200 -1 x0 <= +0
 c222: +1 x201 -1 x1 <= +0
 c223: +1 x202 -1 x2 <= +0
 c224: +1 x203 -1 x3 <= +0
 c225: +1 x204 -1 x4 <= +0
 c226: +1 x205 -1 x5 <= +0
 c227: +1 x206 -1 x6 <= +0
 c228: +1 x207 -1 x7 <= +0
 c229: +1 x208 -1 x8 <= +0
 c230: +1 x209 -1 x9 <= +0
Bounds
 0 <= x0 <= 1
 0 <= x1 <= 1
 0 <= x2 <= 1
 0 <= x3 <= 1
 0 <= x4 <= 1
 0 <= x5 <= 1
 0 <= x6 <= 1
 0 <= x7 <= 1
 0 <= x8 <= 1
 0 <= x9 <= 1
 0 <= x10 <= 1
 0 <= x11 <= 1
 0 <= x12 <= 1
 0 <= x13 <= 1
 0 <= x14 <= 1
 0 <= x15 <= 1
 0 <= x16 <= 1
 0 <= x17 <= 1
 0 <= x18 <= 1
 0 <= x19 <= 1
 0 <= x20 <= 1
 0 <= x21 <= 1
 0 <= x22 <= 1
 0 <= x23 <= 1
 0 <= x24 <= 1
 0 <= x25 <= 1
 0 <= x26 <= 1
 0 <= x27 <= 1
 0 <= x28 <= 1
 0 <= x29 <= 1
 0 <= x30 <= 1
 0 <= x31 <= 1
 0 <= x32 <= 1
 0 <= x33 <= 1
 0 <= x34 <= 1
 0 <= x35 <= 1
 0 <= x36 <= 1
 0 <= x37 <= 1
 0 <= x38 <= 1
 0 <= x39 <= 1
 0 <= x40 <= 1
 0 <= x41 <= 1
 0 <= x42 <= 1
 0 <= x43 <= 1
 0 <= x44 <= 1
 0 <= x45 <= 1
 0 <= x46 <= 1
 0 <= x47 <= 1
 0 <= x48 <= 1
 0 <= x49 <= 1
 0 <= x50 <= 1
 0 <= x51 <= 1
 0 <= x52 <= 1
 0 <= x53 <= 1
 0 <= x54 <= 1
 0 <= x55 <= 1
 0 <= x56 <= 1
 0 <= x57 <= 1
 0 <= x58 <= 1
 0 <= x59 <= 1
 0 <= x60 <= 1
 0 <= x61 <= 1
 0 <= x62 <= 1
 0 <= x63 <= 1
 0 <= x64 <= 1
 0 <= x65 <= 1
 0 <= x66 <= 1
 0 <= x67 <= 1
 0 <= x68 <= 1
 0 <= x69 <= 1
 0 <= x70 <= 1
 0 <= x71 <= 1
 0 <= x72 <= 1
 0 <= x73 <= 1
 0 <= x74 <= 1
 0 <= x75 <= 1
 0 <= x76 <= 1
 0 <= x77 <= 1
 0 <= x78 <= 1
 0 <= x79 <= 1
 0 <= x80 <= 1
 0 <= x81 <= 1
 0 <= x82 <= 1
 0 <= x83 <= 1
 0 <= x84 <= 1
 0 <= x85 <= 1
 0 <= x86 <= 1
 0 <= x87 <= 1
 0 <= x88 <= 1
 0 <= x89 <= 1
 0 <= x90 <= 1
 0 <= x91 <= 1
 0 <= x92 <= 1
 0 <= x93 <= 1
 0 <= x94 <= 1
 0 <= x95 <= 1
 0 <= x96 <= 1
 0 <= x97 <= 1
 0 <= x98 <= 1
 0 <= x99 <= 1
 0 <= x100 <= 1
 0 <= x101 <= 1
 0 <= x102 <= 1
 0 <= x103 <= 1
 0 <= x104 <= 1
 0 <= x105 <= 1
 0 <= x106 <= 1
 0 <= x107 <= 1
 0 <= x108 <= 1
 0 <= x109 <= 1
 0 <= x110 <= 1
 0 <= x111 <= 1
 0 <= x112 <= 1
 0 <= x113 <= 1
 0 <= x114 <= 1
 0 <= x115 <= 1
 0 <= x116 <= 1
 0 <= x117 <= 1
 0 <= x118 <= 1
 0 <= x119 <= 1
 0 <= x120 <= 1
 0 <= x121 <= 1
 0 <= x122 <= 1
 0 <= x123 <= 1
 0 <= x124 <= 1
 0 <= x125 <= 1
 0 <= x126 <= 1
 0 <= x127 <= 1
 0 <= x128 <= 1
 0 <= x129 <= 1
 0 <= x130 <= 1
 0 <= x131 <= 1
 0 <= x132 <= 1
 0 <= x133 <= 1
 0 <= x134 <= 1
 0 <= x135 <= 1
 0 <= x136 <= 1
 0 <= x137 <= 1
 0 <= x138 <= 1
 0 <= x139 <= 1
 0 <= x140 <= 1
 0 <= x141 <= 1
 0 <= x142 <= 1
 0 <= x143 <= 1
 0 <= x144 <= 1
 0 <= x145 <= 1
 0 <= x146 <= 1
 0 <= x147 <= 1
 0 <= x148 <= 1
 0 <= x149 <= 1
 0 <= x150 <= 1
 0 <= x151 <= 1
 0 <= x152 <= 1
 0 <= x153 <= 1
 0 <= x154 <= 1
 0 <= x155 <= 1
 0 <= x156 <= 1
 0 <= x157 <= 1
 0 <= x158 <= 1
 0 <= x159 <= 1
 0 <= x160 <= 1
 0 <= x161 <= 1
 0 <= x162 <= 1
 0 <= x163 <= 1
 0 <= x164 <= 1
 0 <= x165 <= 1
 0 <= x166 <= 1
 0 <= x167 <= 1
 0 <= x168 <= 1
 0 <= x169 <= 1
 0 <= x170 <= 1
 0 <= x171 <= 1
 0 <= x172 <= 1
 0 <= x173 <= 1
 0 <= x174 <= 1
 0 <= x175 <= 1
 0 <= x176 <= 1
 0 <= x177 <= 1
 0 <= x178 <= 1
 0 <= x179 <= 1
 0 <= x180 <= 1
 0 <= x181 <= 1
 0 <= x182 <= 1
 0 <= x183 <= 1
 0 <= x184 <= 1
 0 <= x185 <= 1
 0 <= x186 <= 1
 0 <= x187 <= 1
 0 <= x188 <= 1
 0 <= x189 <= 1
 0 <= x190 <= 1
 0 <= x191 <= 1
 0 <= x192 <= 1
 0 <= x193 <= 1
 0 <= x194 <= 1
 0 <= x195 <= 1
 0 <= x196 <= 1
 0 <= x197 <= 1
 0 <= x198 <= 1
 0 <= x199 <= 1
 0 <= x200 <= 1
 0 <= x201 <= 1
 0 <= x202 <= 1
 0 <= x203 <= 1
 0 <= x204 <= 1
 0 <= x205 <= 1
 0 <= x206 <= 1
 0 <= x207 <= 1
 0 <= x208 <= 1
 0 <= x209 <= 1
Binaries
 x0 x1 x2 x3 x4 x5 x6 x7 x8 x9 x10 x11 x12 x13 x14 x15 x16 x17 x18 x19 x20 x21 x22 x23 x24 x25 x26 x27
 x28 x29 x30 x31 x32 x33 x34 x35 x36 x37 x38 x39 x40 x41 x42 x43 x44 x45 x46 x47 x48 x49 x50 x51 x52 x53
 x54 x55 x56 x57 x58 x59 x60 x61 x62 x63 x64 x65 x66 x67 x68 x69 x70 x71 x72 x73 x74 x75 x76 x77 x78 x79
 x80 x81 x82 x83 x84 x85 x86 x87 x88 x89 x90 x91 x92 x93 x94 x95 x96 x97 x98 x99 x100 x101 x102 x103 x104
 x105 x106 x107 x108 x109 x110 x111 x112 x113 x114 x115 x116 x117 x118 x119 x120 x121 x122 x123 x124 x125
 x126 x127 x128 x129 x130 x131 x132 x133 x134 x135 x136 x137 x138 x139 x140 x141 x142 x143 x144 x145 x146
 x147 x148 x149 x150 x151 x152 x153 x154 x155 x156 x157 x158 x159 x160 x161 x162 x163 x164 x165 x166 x167
 x168 x169 x170 x171 x172 x173 x174 x175 x176 x177 x178 x179 x180 x181 x182 x183 x184 x185 x186 x187 x188
 x189 x190 x191 x192 x193 x194 x195 x196 x197 x198 x199 x200 x201 x202 x203 x204 x205 x206 x207 x208 x209
End
